Data path: /scratch/opt/lxu/CFLG/benchmarks/random_A
Instance: r_20_0.1_23.txt
Result path: /scratch/opt/lxu/CFLG/results/random_A
Solver: Gurobi
Time limit: 3600
Formulation: LEFPD
Cover: Small
julia --project=. src/main.jl /scratch/opt/lxu/CFLG/benchmarks/random_A r_20_0.1_23.txt /scratch/opt/lxu/CFLG/results/random_A Gurobi 3600 LEFPD Small
The latest version of Julia in the `release` channel is 1.11.5+0.x64.linux.gnu. You currently have `1.11.4+0.x64.linux.gnu` installed. Run:

  juliaup update

in your terminal shell to install Julia 1.11.5+0.x64.linux.gnu and update the `release` channel to that version.
/scratch/opt/lxu/CFLG/benchmarks/random_A Gurobi 3600.0 /scratch/opt/lxu/CFLG/results/random_A r_20_0.1_23.txt LEFPD Small
/scratch/opt/lxu/CFLG/benchmarks/random_A/r_20_0.1_23.txt

 read graph
data loaded


after absorb:15 20

max_piece:12
problem_graph/original graph: node: 16/20 edge: 19/23 dlt: 0.15034436315001956 break_avg_len: 0.7279832320948317 break_max_len: 1.7763450786767956elapsed CPU time: 0.044939 seconds
Set parameter TokenServer to value "solice01.zib.de"
Set parameter Threads to value 1
Set parameter OutputFlag to value 1
Set parameter MIPGap to value 0.0001
Set parameter MIPGapAbs to value 1
Set parameter TimeLimit to value 3599.955061

 more cuts:false
formulation:LEFPD17 2 1

 model loaded

Gurobi Optimizer version 12.0.1 build v12.0.1rc0 (linux64 - "Debian GNU/Linux 12 (bookworm)")

CPU model: Intel(R) Xeon(R) Gold 5122 CPU @ 3.60GHz, instruction set [SSE2|AVX|AVX2|AVX512]
Thread count: 8 physical cores, 16 logical processors, using up to 1 threads

Non-default parameters:
TimeLimit  3599.955061
MIPGapAbs  1
Threads  1

Optimize a model with 533 rows, 312 columns and 1203 nonzeros
Model fingerprint: 0x842be177
Variable types: 121 continuous, 191 integer (191 binary)
Coefficient statistics:
  Matrix range     [2e-07, 2e+00]
  Objective range  [1e+00, 1e+00]
  Bounds range     [1e-01, 2e+00]
  RHS range        [1e-02, 2e+00]
Presolve removed 349 rows and 163 columns
Presolve time: 0.01s
Presolved: 184 rows, 149 columns, 643 nonzeros
Variable types: 81 continuous, 68 integer (68 binary)
Found heuristic solution: objective 55.0000000
Found heuristic solution: objective 54.0000000

Root relaxation: objective 3.976552e+01, 118 iterations, 0.00 seconds (0.00 work units)

    Nodes    |    Current Node    |     Objective Bounds      |     Work
 Expl Unexpl |  Obj  Depth IntInf | Incumbent    BestBd   Gap | It/Node Time

     0     0   39.76552    0   35   54.00000   39.76552  26.4%     -    0s
H    0     0                      46.0000000   39.76552  13.6%     -    0s
     0     0   41.84123    0   37   46.00000   41.84123  9.04%     -    0s
     0     0   41.95491    0   37   46.00000   41.95491  8.79%     -    0s
     0     0   42.61428    0   41   46.00000   42.61428  7.36%     -    0s
     0     0   42.70234    0   42   46.00000   42.70234  7.17%     -    0s
     0     0   42.80140    0   41   46.00000   42.80140  6.95%     -    0s
     0     0   42.80140    0   41   46.00000   42.80140  6.95%     -    0s
     0     0   43.00000    0   39   46.00000   43.00000  6.52%     -    0s
     0     0   43.00000    0   40   46.00000   43.00000  6.52%     -    0s
     0     0   43.00000    0   35   46.00000   43.00000  6.52%     -    0s
     0     0   43.00000    0   29   46.00000   43.00000  6.52%     -    0s
     0     0   43.00000    0   27   46.00000   43.00000  6.52%     -    0s
H    0     0                      45.0000000   43.00000  4.44%     -    0s
     0     0   43.00000    0   34   45.00000   43.00000  4.44%     -    0s
     0     0   43.00000    0   40   45.00000   43.00000  4.44%     -    0s
     0     0   43.00000    0   40   45.00000   43.00000  4.44%     -    0s
     0     2   43.00000    0   39   45.00000   43.00000  4.44%     -    0s

Cutting planes:
  Gomory: 9
  Cover: 19
  Implied bound: 9
  MIR: 41
  Flow cover: 10
  GUB cover: 2
  Inf proof: 1
  Network: 1
  RLT: 7
  Relax-and-lift: 3

Explored 105 nodes (2491 simplex iterations) in 0.14 seconds (0.07 work units)
Thread count was 1 (of 16 available processors)

Solution count 4: 45 46 54 55 

Optimal solution found (tolerance 1.00e-04)
Best objective 4.500000000000e+01, best bound 4.500000000000e+01, gap 0.0000%

User-callback calls 1317, time in user-callback 0.01 sec

 sepatime0
45.0Stat(MathOptInterface.OPTIMAL, 45.0, 45.0, 0.0, 0.0, 0.044939, 0.14008688926696777, 105, Main.CFLG.LEFPD, "", #undef)
